========================================================== 
File name: C:\DEGR\assets\definitions\MSRCPSP_Gen\200_5_64_10_A.def
Creation date: Wed May 03 10:46:46 CEST 2023
Website: http://imopse.ii.pwr.edu.pl/ 
Reference: 
Myszkowski P. B., Skowronski M. E., Olech L., Oslizlo K., 
Hybrid Ant Colony Optimization in solving Multi-Skill Resource-Constrained Project Scheduling Problem, 
Soft Computing, DOI: DOI 10.1007/s00500-014-1455-x 
========================================================== 
General characteristics: 
Tasks: 200
Resources: 5
Precedence relations: 63
Number of skill types: 10
========================================================== 
ResourceID 	 Salary 	 Skills 
1	 	 	94.8	 	 Q4: 3 	  Q8: 3 	  Q1: 1 	  Q2: 1 	  Q7: 3 	  Q0: 2 	 
2	 	 	56.1	 	 Q8: 3 	  Q9: 1 	 
3	 	 	17.2	 	 Q4: 2 	  Q7: 0 	  Q6: 0 	  Q3: 2 	  Q5: 3 	  Q1: 3 	  Q8: 1 	  Q9: 2 	 
4	 	 	36.4	 	 Q8: 0 	  Q9: 0 	  Q2: 1 	 
5	 	 	67.8	 	 Q4: 0 	  Q2: 1 	 
========================================================== 
TaskID 	 Duration 	 Skill 	 Predecessor IDs 
1	33	Q7:	0
2	28	Q8:	1
3	27	Q4:	3
4	38	Q1:	3
5	18	Q4:	3
6	9	Q9:	0
7	34	Q1:	3
8	28	Q4:	0
9	30	Q9:	0
10	28	Q4:	2
11	20	Q9:	1
12	19	Q4:	2
13	12	Q4:	2
14	31	Q9:	1
15	12	Q8:	0
16	40	Q4:	0	9
17	13	Q7:	3	9
18	12	Q4:	0
19	28	Q1:	1
20	28	Q2:	1
21	36	Q8:	3
22	20	Q2:	1
23	12	Q3:	2
24	36	Q8:	3
25	32	Q8:	3
26	33	Q9:	0
27	9	Q7:	3
28	37	Q6:	0
29	23	Q8:	0
30	9	Q4:	2
31	32	Q9:	0
32	17	Q5:	3
33	10	Q9:	2
34	9	Q6:	0
35	26	Q8:	0
36	37	Q7:	0
37	10	Q9:	2
38	31	Q1:	3
39	35	Q4:	0
40	36	Q5:	3
41	40	Q1:	3
42	18	Q4:	2
43	17	Q4:	3
44	20	Q1:	1	21
45	19	Q4:	0
46	36	Q1:	1
47	25	Q5:	3
48	20	Q3:	2
49	34	Q6:	0
50	14	Q8:	1
51	36	Q8:	0
52	23	Q4:	0
53	36	Q9:	0
54	36	Q9:	2
55	33	Q5:	3
56	17	Q8:	3
57	30	Q1:	1
58	37	Q1:	1	2
59	11	Q4:	3
60	22	Q1:	3
61	31	Q4:	2	3
62	16	Q9:	0
63	30	Q3:	2
64	27	Q8:	3
65	21	Q4:	0
66	22	Q8:	3
67	24	Q8:	1
68	32	Q9:	0
69	33	Q1:	1
70	23	Q4:	2
71	29	Q3:	2
72	21	Q4:	0
73	21	Q7:	0
74	18	Q3:	2
75	39	Q2:	1
76	26	Q8:	3
77	29	Q3:	2
78	34	Q3:	2
79	27	Q1:	1
80	38	Q8:	3
81	26	Q1:	3
82	37	Q9:	2
83	24	Q5:	3
84	38	Q8:	1
85	36	Q8:	0
86	28	Q0:	2	4
87	10	Q4:	2
88	20	Q9:	1
89	11	Q3:	2
90	19	Q8:	1
91	29	Q9:	2	36
92	10	Q8:	3	8
93	40	Q8:	0
94	21	Q7:	3
95	28	Q8:	3	57
96	19	Q8:	3
97	10	Q1:	1
98	39	Q9:	1
99	27	Q9:	0
100	14	Q9:	1	87
101	31	Q6:	0	61	3
102	18	Q9:	1
103	36	Q4:	3
104	34	Q4:	0	56
105	20	Q8:	1	101
106	35	Q4:	3
107	24	Q8:	0
108	35	Q4:	0
109	39	Q9:	0	52	24
110	36	Q5:	3
111	13	Q4:	3
112	21	Q2:	1
113	17	Q3:	2
114	10	Q1:	3
115	27	Q5:	3
116	28	Q9:	0
117	32	Q8:	0	30
118	17	Q7:	0
119	33	Q7:	3	81	74
120	28	Q4:	2
121	20	Q8:	3	99
122	34	Q4:	2
123	32	Q7:	0
124	31	Q5:	3
125	24	Q7:	0
126	17	Q4:	2
127	21	Q4:	2	107
128	28	Q4:	2
129	12	Q4:	2
130	37	Q0:	2
131	29	Q3:	2	80
132	13	Q4:	0
133	20	Q8:	3	100
134	30	Q2:	1	111	74
135	17	Q9:	0
136	20	Q2:	1	43
137	15	Q8:	1
138	19	Q7:	0
139	12	Q7:	0	11
140	28	Q9:	1	123
141	27	Q8:	0
142	18	Q6:	0
143	24	Q4:	0	114	13	3
144	10	Q7:	3
145	37	Q4:	3	63
146	39	Q8:	3
147	37	Q0:	2
148	21	Q7:	3
149	24	Q1:	3
150	11	Q9:	2	102
151	34	Q8:	1	68
152	29	Q4:	2
153	36	Q6:	0
154	26	Q8:	1	54
155	26	Q9:	0	144	41
156	12	Q3:	2
157	26	Q6:	0
158	18	Q8:	0
159	27	Q5:	3
160	33	Q9:	0	145
161	35	Q7:	3
162	39	Q4:	3
163	23	Q8:	1	57	53
164	22	Q8:	0
165	11	Q1:	1	63	120	17
166	17	Q4:	2	112
167	21	Q9:	2
168	34	Q4:	0	59
169	23	Q0:	2	59	153
170	27	Q1:	1	61
171	12	Q6:	0	67	42
172	40	Q0:	2
173	40	Q9:	2
174	21	Q9:	0	142
175	39	Q1:	3	30
176	26	Q1:	1
177	25	Q9:	2
178	35	Q4:	0
179	35	Q4:	0
180	16	Q4:	3	132
181	38	Q9:	1	12
182	27	Q5:	3
183	27	Q1:	3
184	39	Q9:	2	89
185	20	Q9:	1
186	20	Q4:	0
187	13	Q6:	0	160
188	9	Q7:	3
189	33	Q8:	1
190	40	Q6:	0
191	19	Q1:	3	29
192	21	Q4:	3
193	38	Q5:	3
194	34	Q6:	0
195	39	Q4:	2	64
196	26	Q7:	3
197	16	Q7:	3	161
198	34	Q8:	0	175
199	24	Q2:	1	36
200	24	Q6:	0	3	73
========================================================== 